<number of tasks>
89

<cycle time>
75

<task times>
1 28
2 17
3 7
4 10
5 12
6 16
7 13
8 8
9 13
10 24
11 16
12 24
13 12
14 20
15 22
16 22
17 22
18 47
19 6
20 12
21 6
22 22
23 7
24 14
25 68
26 15
27 8
28 74
29 32
30 11
31 18
32 15
33 42
34 27
35 38
36 38
37 26
38 35
39 31
40 8
41 14
42 8
43 8
44 8
45 17
46 7
47 19
48 12
49 24
50 26
51 22
52 14
53 27
54 60
55 4
56 2
57 1
58 9
59 5
60 6
61 7
62 12
63 2
64 11
65 14
66 6
67 21
68 14
69 1
70 6
71 21
72 11
73 14
74 28
75 12
76 11
77 30
78 22
79 14
80 31
81 18
82 16
83 7
84 38
85 8
86 31
87 29
88 12
89 18

<precedence relations>
1,2
2,3
3,4
4,5
4,6
4,7
4,8
4,9
5,10
6,11
7,12
8,18
9,18
10,14
11,12
12,13
13,14
14,15
14,16
15,17
16,54
17,18
18,19
18,20
19,22
20,21
20,28
21,54
22,23
23,24
24,25
25,26
25,27
25,29
26,37
27,33
28,29
29,31
30,54
31,32
32,33
33,34
34,35
35,36
35,37
36,38
37,38
38,39
39,40
39,41
39,42
39,43
40,44
41,53
42,53
43,45
44,52
45,46
46,47
47,48
47,49
49,50
50,51
51,52
52,53
53,68
53,69
53,70
53,71
54,55
55,56
56,57
57,58
57,59
57,60
57,61
57,62
57,63
57,64
57,65
57,66
58,67
59,67
60,67
61,67
62,67
63,67
64,67
65,67
66,67
67,73
68,72
69,72
70,72
71,73
72,78
72,80
73,74
74,75
74,76
75,77
76,81
77,78
78,79
79,81
80,81
81,82
81,84
81,85
82,83
83,86
84,86
85,86
86,87
87,88
87,89

<setup times forward>
1,30:2
2,30:2
3,30:2
4,5:3
4,6:3
4,8:1
4,9:2
4,30:2
5,7:3
5,8:2
5,9:5
5,10:5
5,13:5
5,30:5
6,7:3
6,8:2
6,9:5
6,10:5
6,30:5
7,5:3
7,6:3
7,8:1
7,9:2
7,10:2
7,11:3
7,12:3
7,30:2
8,5:2
8,6:2
8,7:1
8,9:3
8,10:3
8,11:2
8,12:2
8,13:3
8,14:3
8,30:3
9,5:5
9,6:5
9,7:2
9,8:3
9,11:5
9,12:5
9,15:3
9,16:3
9,17:3
9,18:3
10,6:5
10,7:2
10,8:3
10,11:5
10,12:5
11,7:3
11,8:2
11,9:5
11,10:5
11,30:5
12,8:2
12,9:5
12,10:5
12,13:5
12,30:5
13,5:5
13,8:3
14,8:3
14,15:3
14,16:3
15,9:3
15,30:3
16,9:3
16,22:3
16,23:3
16,24:3
16,25:1
16,26:5
16,27:1
16,28:4
16,29:1
16,30:3
16,31:1
16,32:1
16,33:3
16,34:3
16,35:2
16,37:2
16,38:1
16,39:1
16,40:5
16,41:2
16,42:2
16,43:6
16,44:5
16,45:6
16,46:6
16,47:6
16,48:1
16,49:6
16,50:5
16,51:5
16,52:2
16,53:2
16,54:5
16,68:2
16,69:2
16,70:2
16,71:2
16,72:2
17,9:3
17,30:3
18,30:3
19,22:3
19,28:4
19,30:3
19,54:5
19,55:2
19,56:2
19,57:2
19,58:1
19,59:5
19,60:2
19,61:2
19,63:2
19,66:5
19,67:2
20,22:3
20,23:3
20,24:3
20,25:1
20,26:5
20,27:1
20,28:4
20,30:3
21,22:3
21,23:3
21,24:3
21,25:1
21,26:5
21,27:1
21,28:4
21,29:1
21,30:3
21,31:1
21,32:1
21,33:3
21,34:3
21,35:2
21,37:2
21,38:1
21,39:1
21,40:5
21,41:2
21,42:2
21,43:6
21,44:5
21,45:6
21,46:6
21,47:6
21,48:1
21,49:6
21,50:5
21,51:5
21,52:2
21,53:2
21,54:5
21,68:2
21,69:2
21,70:2
21,71:2
21,72:2
22,16:3
22,20:3
22,21:3
22,28:1
22,54:2
22,55:1
22,56:1
22,57:1
22,58:4
22,59:2
22,60:5
22,61:1
22,62:3
22,63:1
22,64:3
22,65:3
22,66:2
22,67:1
23,16:3
23,20:3
23,21:3
23,28:1
23,54:2
23,55:1
23,56:1
23,57:1
23,58:4
23,59:2
23,60:5
23,61:1
23,62:3
23,63:1
23,64:3
23,65:3
23,66:2
23,67:1
24,16:3
24,20:3
24,21:3
24,25:2
24,28:1
24,54:2
24,55:1
24,56:1
24,57:1
24,58:4
24,59:2
24,60:5
24,61:1
24,62:3
24,63:1
24,64:3
24,65:3
24,66:2
24,67:1
25,16:1
25,20:1
25,21:1
25,26:4
25,27:2
25,28:3
25,29:2
25,30:2
25,54:4
25,55:1
25,56:1
25,57:1
25,58:2
25,59:4
25,60:3
25,61:1
25,62:1
25,63:1
25,64:1
25,65:1
25,66:4
25,67:1
26,16:5
26,20:5
26,21:5
26,27:6
26,28:1
26,29:6
26,30:2
26,31:6
26,32:6
26,33:2
26,34:2
26,35:3
26,36:5
26,37:3
26,55:3
26,56:3
26,57:3
26,58:6
26,60:7
26,61:3
26,62:5
26,63:3
26,64:5
26,65:5
26,67:3
27,16:1
27,20:1
27,21:1
27,26:6
27,28:5
27,30:4
27,33:4
27,54:6
27,55:3
27,56:3
27,57:3
27,59:6
27,60:1
27,61:3
27,62:1
27,63:3
27,64:1
27,65:1
27,66:6
27,67:3
28,16:4
28,19:4
28,21:4
28,22:1
28,23:1
28,24:1
28,25:3
28,26:1
28,27:5
28,29:5
28,30:1
28,54:1
28,55:2
28,56:2
28,57:2
28,58:5
28,59:1
28,60:6
28,61:2
28,62:4
28,63:2
28,64:4
28,65:4
28,66:1
28,67:2
29,16:1
29,21:1
29,26:6
29,30:4
29,54:6
29,55:3
29,56:3
29,57:3
29,59:6
29,60:1
29,61:3
29,62:1
29,63:3
29,64:1
29,65:1
29,66:6
29,67:3
30,1:2
30,2:2
30,3:2
30,4:2
30,5:5
30,6:5
30,7:2
30,8:3
30,11:5
30,12:5
30,15:3
30,16:3
30,17:3
30,18:3
30,19:3
30,20:3
30,21:3
30,25:2
30,26:2
30,27:4
30,28:1
30,29:4
30,31:4
30,32:4
30,35:1
30,36:3
30,37:1
30,38:4
30,39:4
30,40:2
30,41:5
30,42:5
30,43:3
30,44:2
30,45:3
30,46:3
30,47:3
30,48:4
30,49:3
30,50:2
30,51:2
30,52:5
30,53:5
30,54:2
30,68:1
30,69:1
30,70:5
30,71:1
30,72:1
30,80:3
31,16:1
31,21:1
31,26:6
31,30:4
31,54:6
31,55:3
31,56:3
31,57:3
31,59:6
31,60:1
31,61:3
31,62:1
31,63:3
31,64:1
31,65:1
31,66:6
31,67:3
32,16:1
32,21:1
32,26:6
32,30:4
32,33:4
32,54:6
32,55:3
32,56:3
32,57:3
32,59:6
32,60:1
32,61:3
32,62:1
32,63:3
32,64:1
32,65:1
32,66:6
32,67:3
33,16:3
33,21:3
33,26:2
33,54:2
33,55:1
33,56:1
33,57:1
33,58:4
33,59:2
33,60:5
33,61:1
33,62:3
33,63:1
33,64:3
33,65:3
33,66:2
33,67:1
34,16:3
34,21:3
34,26:2
34,35:1
34,54:2
34,55:1
34,56:1
34,57:1
34,58:4
34,59:2
34,60:5
34,61:1
34,62:3
34,63:1
34,64:3
34,65:3
34,66:2
34,67:1
35,16:2
35,21:2
35,26:3
35,30:1
35,36:2
35,54:3
35,58:3
35,59:3
35,60:4
35,62:2
35,64:2
35,65:2
35,66:3
36,26:5
36,30:3
36,37:2
36,38:1
36,54:5
36,55:2
36,56:2
36,57:2
36,58:1
36,59:5
36,60:2
36,61:2
36,63:2
36,66:5
36,67:2
37,16:2
37,21:2
37,30:1
37,36:2
37,38:3
37,54:3
37,58:3
37,59:3
37,60:4
37,62:2
37,64:2
37,65:2
37,66:3
38,16:1
38,21:1
38,30:4
38,54:6
38,55:3
38,56:3
38,57:3
38,59:6
38,60:1
38,61:3
38,62:1
38,63:3
38,64:1
38,65:1
38,66:6
38,67:3
39,16:1
39,21:1
39,30:4
39,40:6
39,41:1
39,42:1
39,43:7
39,54:6
39,55:3
39,56:3
39,57:3
39,59:6
39,60:1
39,61:3
39,62:1
39,63:3
39,64:1
39,65:1
39,66:6
39,67:3
40,16:5
40,21:5
40,30:2
40,41:7
40,42:7
40,43:1
40,45:1
40,46:1
40,47:1
40,48:6
40,49:1
40,55:3
40,56:3
40,57:3
40,58:6
40,60:7
40,61:3
40,62:5
40,63:3
40,64:5
40,65:5
40,67:3
41,16:2
41,21:2
41,30:5
41,40:7
41,43:8
41,44:7
41,45:8
41,46:8
41,47:8
41,48:1
41,49:8
41,50:7
41,51:7
41,54:7
41,55:4
41,56:4
41,57:4
41,58:1
41,59:7
41,61:4
41,62:2
41,63:4
41,64:2
41,65:2
41,66:7
41,67:4
42,16:2
42,21:2
42,30:5
42,40:7
42,43:8
42,44:7
42,45:8
42,46:8
42,47:8
42,48:1
42,49:8
42,50:7
42,51:7
42,54:7
42,55:4
42,56:4
42,57:4
42,58:1
42,59:7
42,61:4
42,62:2
42,63:4
42,64:2
42,65:2
42,66:7
42,67:4
43,16:6
43,21:6
43,30:3
43,40:1
43,41:8
43,42:8
43,44:1
43,54:1
43,55:4
43,56:4
43,57:4
43,58:7
43,59:1
43,60:8
43,61:4
43,62:6
43,63:4
43,64:6
43,65:6
43,66:1
43,67:4
44,16:5
44,21:5
44,30:2
44,41:7
44,42:7
44,43:1
44,45:1
44,46:1
44,47:1
44,48:6
44,49:1
44,52:7
44,55:3
44,56:3
44,57:3
44,58:6
44,60:7
44,61:3
44,62:5
44,63:3
44,64:5
44,65:5
44,67:3
45,16:6
45,21:6
45,30:3
45,40:1
45,41:8
45,42:8
45,44:1
45,54:1
45,55:4
45,56:4
45,57:4
45,58:7
45,59:1
45,60:8
45,61:4
45,62:6
45,63:4
45,64:6
45,65:6
45,66:1
45,67:4
46,16:6
46,21:6
46,30:3
46,40:1
46,41:8
46,42:8
46,44:1
46,54:1
46,55:4
46,56:4
46,57:4
46,58:7
46,59:1
46,60:8
46,61:4
46,62:6
46,63:4
46,64:6
46,65:6
46,66:1
46,67:4
47,16:6
47,21:6
47,30:3
47,40:1
47,41:8
47,42:8
47,44:1
47,48:7
47,54:1
47,55:4
47,56:4
47,57:4
47,58:7
47,59:1
47,60:8
47,61:4
47,62:6
47,63:4
47,64:6
47,65:6
47,66:1
47,67:4
48,16:1
48,21:1
48,30:4
48,40:6
48,41:1
48,42:1
48,44:6
48,49:7
48,50:6
48,51:6
48,52:1
48,53:1
48,54:6
48,55:3
48,56:3
48,57:3
48,59:6
48,60:1
48,61:3
48,62:1
48,63:3
48,64:1
48,65:1
48,66:6
48,67:3
48,68:3
48,69:3
48,70:1
48,71:3
48,72:3
48,73:1
48,74:1
48,80:1
48,84:5
48,86:5
49,16:6
49,21:6
49,30:3
49,40:1
49,41:8
49,42:8
49,44:1
49,48:7
49,50:1
49,54:1
49,55:4
49,56:4
49,57:4
49,58:7
49,59:1
49,60:8
49,61:4
49,62:6
49,63:4
49,64:6
49,65:6
49,66:1
49,67:4
50,16:5
50,21:5
50,30:2
50,41:7
50,42:7
50,48:6
50,55:3
50,56:3
50,57:3
50,58:6
50,60:7
50,61:3
50,62:5
50,63:3
50,64:5
50,65:5
50,67:3
51,16:5
51,21:5
51,30:2
51,41:7
51,42:7
51,48:6
51,52:7
51,55:3
51,56:3
51,57:3
51,58:6
51,60:7
51,61:3
51,62:5
51,63:3
51,64:5
51,65:5
51,67:3
52,16:2
52,21:2
52,30:5
52,48:1
52,54:7
52,55:4
52,56:4
52,57:4
52,58:1
52,59:7
52,61:4
52,62:2
52,63:4
52,64:2
52,65:2
52,66:7
52,67:4
53,16:2
53,21:2
53,30:5
53,48:1
53,54:7
53,55:4
53,56:4
53,57:4
53,58:1
53,59:7
53,61:4
53,62:2
53,63:4
53,64:2
53,65:2
53,66:7
53,67:4
53,68:4
53,69:4
53,71:4
54,19:5
54,22:2
54,23:2
54,24:2
54,25:4
54,27:6
54,28:1
54,29:6
54,31:6
54,32:6
54,33:2
54,34:2
54,35:3
54,36:5
54,37:3
54,38:6
54,39:6
54,41:7
54,42:7
54,43:1
54,45:1
54,46:1
54,47:1
54,48:6
54,49:1
54,52:7
54,53:7
54,55:3
54,68:3
54,69:3
54,70:7
54,71:3
54,72:3
54,80:5
55,19:2
55,22:1
55,23:1
55,24:1
55,25:1
55,26:3
55,27:3
55,28:2
55,29:3
55,31:3
55,32:3
55,33:1
55,34:1
55,36:2
55,38:3
55,39:3
55,40:3
55,41:4
55,42:4
55,43:4
55,44:3
55,45:4
55,46:4
55,47:4
55,48:3
55,49:4
55,50:3
55,51:3
55,52:4
55,53:4
55,70:4
55,80:2
56,19:2
56,22:1
56,23:1
56,24:1
56,25:1
56,26:3
56,27:3
56,28:2
56,29:3
56,31:3
56,32:3
56,33:1
56,34:1
56,36:2
56,38:3
56,39:3
56,40:3
56,41:4
56,42:4
56,43:4
56,44:3
56,45:4
56,46:4
56,47:4
56,48:3
56,49:4
56,50:3
56,51:3
56,52:4
56,53:4
56,70:4
56,80:2
57,19:2
57,22:1
57,23:1
57,24:1
57,25:1
57,26:3
57,27:3
57,28:2
57,29:3
57,31:3
57,32:3
57,33:1
57,34:1
57,36:2
57,38:3
57,39:3
57,40:3
57,41:4
57,42:4
57,43:4
57,44:3
57,45:4
57,46:4
57,47:4
57,48:3
57,49:4
57,50:3
57,51:3
57,52:4
57,53:4
57,58:3
57,59:3
57,60:4
57,62:2
57,64:2
57,65:2
57,66:3
57,70:4
57,80:2
58,19:1
58,22:4
58,23:4
58,24:4
58,25:2
58,26:6
58,28:5
58,33:4
58,34:4
58,35:3
58,36:1
58,37:3
58,40:6
58,41:1
58,42:1
58,43:7
58,44:6
58,45:7
58,46:7
58,47:7
58,49:7
58,50:6
58,51:6
58,52:1
58,53:1
58,59:6
58,60:1
58,61:3
58,62:1
58,63:3
58,64:1
58,65:1
58,66:6
58,67:3
58,68:3
58,69:3
58,70:1
58,71:3
58,72:3
58,80:1
59,19:5
59,22:2
59,23:2
59,24:2
59,25:4
59,27:6
59,28:1
59,29:6
59,31:6
59,32:6
59,33:2
59,34:2
59,35:3
59,36:5
59,37:3
59,38:6
59,39:6
59,41:7
59,42:7
59,43:1
59,45:1
59,46:1
59,47:1
59,48:6
59,49:1
59,52:7
59,53:7
59,58:6
59,60:7
59,61:3
59,62:5
59,63:3
59,64:5
59,65:5
59,67:3
59,68:3
59,69:3
59,70:7
59,71:3
59,72:3
59,80:5
60,19:2
60,22:5
60,23:5
60,24:5
60,25:3
60,26:7
60,27:1
60,28:6
60,29:1
60,31:1
60,32:1
60,33:5
60,34:5
60,35:4
60,36:2
60,37:4
60,38:1
60,39:1
60,40:7
60,43:8
60,44:7
60,45:8
60,46:8
60,47:8
60,48:1
60,49:8
60,50:7
60,51:7
60,58:1
60,59:7
60,61:4
60,62:2
60,63:4
60,64:2
60,65:2
60,66:7
60,67:4
60,68:4
60,69:4
60,71:4
60,72:4
60,80:2
61,19:2
61,22:1
61,23:1
61,24:1
61,25:1
61,26:3
61,27:3
61,28:2
61,29:3
61,31:3
61,32:3
61,33:1
61,34:1
61,36:2
61,38:3
61,39:3
61,40:3
61,41:4
61,42:4
61,43:4
61,44:3
61,45:4
61,46:4
61,47:4
61,48:3
61,49:4
61,50:3
61,51:3
61,52:4
61,53:4
61,58:3
61,59:3
61,60:4
61,62:2
61,64:2
61,65:2
61,66:3
61,70:4
61,80:2
62,22:3
62,23:3
62,24:3
62,25:1
62,26:5
62,27:1
62,28:4
62,29:1
62,31:1
62,32:1
62,33:3
62,34:3
62,35:2
62,37:2
62,38:1
62,39:1
62,40:5
62,41:2
62,42:2
62,43:6
62,44:5
62,45:6
62,46:6
62,47:6
62,48:1
62,49:6
62,50:5
62,51:5
62,52:2
62,53:2
62,58:1
62,59:5
62,60:2
62,61:2
62,63:2
62,66:5
62,67:2
62,68:2
62,69:2
62,70:2
62,71:2
62,72:2
63,19:2
63,22:1
63,23:1
63,24:1
63,25:1
63,26:3
63,27:3
63,28:2
63,29:3
63,31:3
63,32:3
63,33:1
63,34:1
63,36:2
63,38:3
63,39:3
63,40:3
63,41:4
63,42:4
63,43:4
63,44:3
63,45:4
63,46:4
63,47:4
63,48:3
63,49:4
63,50:3
63,51:3
63,52:4
63,53:4
63,58:3
63,59:3
63,60:4
63,62:2
63,64:2
63,65:2
63,66:3
63,70:4
63,80:2
64,22:3
64,23:3
64,24:3
64,25:1
64,26:5
64,27:1
64,28:4
64,29:1
64,31:1
64,32:1
64,33:3
64,34:3
64,35:2
64,37:2
64,38:1
64,39:1
64,40:5
64,41:2
64,42:2
64,43:6
64,44:5
64,45:6
64,46:6
64,47:6
64,48:1
64,49:6
64,50:5
64,51:5
64,52:2
64,53:2
64,58:1
64,59:5
64,60:2
64,61:2
64,63:2
64,66:5
64,67:2
64,68:2
64,69:2
64,70:2
64,71:2
64,72:2
65,22:3
65,23:3
65,24:3
65,25:1
65,26:5
65,27:1
65,28:4
65,29:1
65,31:1
65,32:1
65,33:3
65,34:3
65,35:2
65,37:2
65,38:1
65,39:1
65,40:5
65,41:2
65,42:2
65,43:6
65,44:5
65,45:6
65,46:6
65,47:6
65,48:1
65,49:6
65,50:5
65,51:5
65,52:2
65,53:2
65,58:1
65,59:5
65,60:2
65,61:2
65,63:2
65,66:5
65,67:2
65,68:2
65,69:2
65,70:2
65,71:2
65,72:2
66,19:5
66,22:2
66,23:2
66,24:2
66,25:4
66,27:6
66,28:1
66,29:6
66,31:6
66,32:6
66,33:2
66,34:2
66,35:3
66,36:5
66,37:3
66,38:6
66,39:6
66,41:7
66,42:7
66,43:1
66,45:1
66,46:1
66,47:1
66,48:6
66,49:1
66,52:7
66,53:7
66,58:6
66,60:7
66,61:3
66,62:5
66,63:3
66,64:5
66,65:5
66,67:3
66,68:3
66,69:3
66,70:7
66,71:3
66,72:3
66,80:5
67,19:2
67,22:1
67,23:1
67,24:1
67,25:1
67,26:3
67,27:3
67,28:2
67,29:3
67,31:3
67,32:3
67,33:1
67,34:1
67,36:2
67,38:3
67,39:3
67,40:3
67,41:4
67,42:4
67,43:4
67,44:3
67,45:4
67,46:4
67,47:4
67,48:3
67,49:4
67,50:3
67,51:3
67,52:4
67,53:4
67,70:4
67,73:2
67,80:2
68,16:2
68,21:2
68,30:1
68,48:3
68,54:3
68,58:3
68,59:3
68,60:4
68,62:2
68,64:2
68,65:2
68,66:3
68,70:4
68,73:2
68,74:2
68,75:3
68,76:3
68,77:3
69,16:2
69,21:2
69,30:1
69,48:3
69,54:3
69,58:3
69,59:3
69,60:4
69,62:2
69,64:2
69,65:2
69,66:3
69,70:4
69,73:2
69,74:2
69,75:3
69,76:3
69,77:3
70,16:2
70,21:2
70,30:5
70,48:1
70,54:7
70,55:4
70,56:4
70,57:4
70,58:1
70,59:7
70,61:4
70,62:2
70,63:4
70,64:2
70,65:2
70,66:7
70,67:4
70,68:4
70,69:4
70,71:4
70,72:4
70,73:2
70,74:2
70,75:1
70,76:1
70,77:1
71,16:2
71,21:2
71,30:1
71,48:3
71,54:3
71,58:3
71,59:3
71,60:4
71,62:2
71,64:2
71,65:2
71,66:3
71,70:4
71,73:2
71,80:2
72,16:2
72,21:2
72,30:1
72,48:3
72,54:3
72,58:3
72,59:3
72,60:4
72,62:2
72,64:2
72,65:2
72,66:3
72,73:2
72,74:2
72,75:3
72,76:3
72,77:3
72,78:3
72,80:2
73,48:1
73,68:2
73,69:2
73,70:2
73,72:2
74,48:1
74,68:2
74,69:2
74,70:2
74,72:2
74,75:1
74,76:1
75,68:3
75,69:3
75,70:1
75,72:3
75,80:1
76,68:3
76,69:3
76,70:1
76,72:3
76,80:1
77,68:3
77,69:3
77,70:1
77,72:3
77,80:1
78,80:1
79,80:1
80,30:3
80,48:1
80,54:5
80,55:2
80,56:2
80,57:2
80,58:1
80,59:5
80,60:2
80,61:2
80,63:2
80,66:5
80,67:2
80,71:2
80,75:1
80,76:1
80,77:1
80,78:1
80,79:1
80,81:1
81,84:5
82,84:5
83,84:5
83,86:5
84,48:5
84,82:5
84,83:5
84,85:5
85,84:5
85,86:5
86,48:5
86,87:5

<setup times backward>
1,30:2
2,30:2
3,30:2
4,30:2
5,1:3
5,2:3
5,3:3
5,4:3
5,7:3
5,8:2
5,9:5
5,13:5
5,30:5
6,1:3
6,2:3
6,3:3
6,4:3
6,7:3
6,8:2
6,9:5
6,10:5
6,30:5
7,9:2
7,10:2
7,30:2
8,1:1
8,2:1
8,3:1
8,4:1
8,7:1
8,9:3
8,10:3
8,13:3
8,14:3
8,30:3
11,1:3
11,2:3
11,3:3
11,4:3
11,7:3
11,8:2
11,9:5
11,10:5
11,30:5
12,1:3
12,2:3
12,3:3
12,4:3
12,7:3
12,8:2
12,9:5
12,10:5
12,30:5
15,1:1
15,2:1
15,3:1
15,4:1
15,7:1
15,9:3
15,10:3
15,13:3
15,14:3
15,30:3
16,1:1
16,2:1
16,3:1
16,4:1
16,7:1
16,9:3
16,10:3
16,13:3
16,14:3
16,22:3
16,23:3
16,24:3
16,25:1
16,26:5
16,28:4
16,30:3
16,33:3
16,34:3
16,35:2
16,37:2
16,40:5
16,43:6
16,44:5
16,45:6
16,46:6
16,47:6
16,49:6
16,50:5
16,51:5
16,68:2
16,69:2
16,71:2
16,72:2
17,1:1
17,2:1
17,3:1
17,4:1
17,7:1
17,9:3
17,10:3
17,13:3
17,14:3
17,30:3
18,1:1
18,2:1
18,3:1
18,4:1
18,7:1
18,9:3
18,10:3
18,13:3
18,14:3
18,30:3
19,1:1
19,2:1
19,3:1
19,4:1
19,7:1
19,9:3
19,10:3
19,13:3
19,14:3
19,28:4
19,30:3
19,54:5
19,55:2
19,56:2
19,57:2
19,59:5
19,61:2
19,63:2
19,66:5
19,67:2
20,1:1
20,2:1
20,3:1
20,4:1
20,7:1
20,9:3
20,10:3
20,13:3
20,14:3
20,22:3
20,23:3
20,24:3
20,25:1
20,26:5
20,30:3
21,1:1
21,2:1
21,3:1
21,4:1
21,7:1
21,9:3
21,10:3
21,13:3
21,14:3
21,22:3
21,23:3
21,24:3
21,25:1
21,26:5
21,28:4
21,30:3
21,33:3
21,34:3
21,35:2
21,37:2
21,40:5
21,43:6
21,44:5
21,45:6
21,46:6
21,47:6
21,49:6
21,50:5
21,51:5
21,68:2
21,69:2
21,71:2
21,72:2
22,28:1
22,54:2
22,59:2
22,66:2
23,28:1
23,54:2
23,59:2
23,66:2
24,28:1
24,54:2
24,59:2
24,66:2
25,9:2
25,10:2
25,13:2
25,14:2
25,22:2
25,23:2
25,24:2
25,28:3
25,30:2
25,54:4
25,55:1
25,56:1
25,57:1
25,59:4
25,61:1
25,63:1
25,66:4
25,67:1
27,1:2
27,2:2
27,3:2
27,4:2
27,7:2
27,8:1
27,9:4
27,10:4
27,13:4
27,14:4
27,15:1
27,16:1
27,17:1
27,18:1
27,19:1
27,20:1
27,21:1
27,22:4
27,23:4
27,24:4
27,25:2
27,26:6
27,28:5
27,30:4
27,54:6
27,55:3
27,56:3
27,57:3
27,59:6
27,61:3
27,62:1
27,63:3
27,64:1
27,65:1
27,66:6
27,67:3
28,26:1
28,54:1
28,59:1
28,66:1
29,1:2
29,2:2
29,3:2
29,4:2
29,7:2
29,8:1
29,9:4
29,10:4
29,13:4
29,14:4
29,15:1
29,16:1
29,17:1
29,18:1
29,19:1
29,20:1
29,21:1
29,22:4
29,23:4
29,24:4
29,25:2
29,26:6
29,28:5
29,30:4
29,54:6
29,55:3
29,56:3
29,57:3
29,59:6
29,61:3
29,62:1
29,63:3
29,64:1
29,65:1
29,66:6
29,67:3
30,26:2
30,28:1
30,40:2
30,43:3
30,44:2
30,45:3
30,46:3
30,47:3
30,49:3
30,50:2
30,51:2
31,1:2
31,2:2
31,3:2
31,4:2
31,7:2
31,8:1
31,9:4
31,10:4
31,13:4
31,14:4
31,15:1
31,16:1
31,17:1
31,18:1
31,19:1
31,20:1
31,21:1
31,22:4
31,23:4
31,24:4
31,25:2
31,26:6
31,28:5
31,30:4
31,54:6
31,55:3
31,56:3
31,57:3
31,59:6
31,61:3
31,62:1
31,63:3
31,64:1
31,65:1
31,66:6
31,67:3
32,1:2
32,2:2
32,3:2
32,4:2
32,7:2
32,8:1
32,9:4
32,10:4
32,13:4
32,14:4
32,15:1
32,16:1
32,17:1
32,18:1
32,19:1
32,20:1
32,21:1
32,22:4
32,23:4
32,24:4
32,25:2
32,26:6
32,28:5
32,30:4
32,54:6
32,55:3
32,56:3
32,57:3
32,59:6
32,61:3
32,62:1
32,63:3
32,64:1
32,65:1
32,66:6
32,67:3
33,26:2
33,28:1
33,54:2
33,59:2
33,66:2
34,26:2
34,28:1
34,54:2
34,59:2
34,66:2
35,9:1
35,10:1
35,13:1
35,14:1
35,22:1
35,23:1
35,24:1
35,26:3
35,28:2
35,30:1
35,33:1
35,34:1
35,54:3
35,59:3
35,66:3
36,1:1
36,2:1
36,3:1
36,4:1
36,7:1
36,9:3
36,10:3
36,13:3
36,14:3
36,22:3
36,23:3
36,24:3
36,25:1
36,26:5
36,28:4
36,30:3
36,33:3
36,34:3
36,35:2
36,37:2
36,54:5
36,55:2
36,56:2
36,57:2
36,59:5
36,61:2
36,63:2
36,66:5
36,67:2
37,9:1
37,10:1
37,13:1
37,14:1
37,22:1
37,23:1
37,24:1
37,26:3
37,28:2
37,30:1
37,33:1
37,34:1
37,54:3
37,59:3
37,66:3
38,1:2
38,2:2
38,3:2
38,4:2
38,7:2
38,8:1
38,9:4
38,10:4
38,13:4
38,14:4
38,15:1
38,16:1
38,17:1
38,18:1
38,19:1
38,20:1
38,21:1
38,22:4
38,23:4
38,24:4
38,25:2
38,26:6
38,28:5
38,30:4
38,33:4
38,34:4
38,35:3
38,36:1
38,37:3
38,54:6
38,55:3
38,56:3
38,57:3
38,59:6
38,61:3
38,62:1
38,63:3
38,64:1
38,65:1
38,66:6
38,67:3
39,1:2
39,2:2
39,3:2
39,4:2
39,7:2
39,8:1
39,9:4
39,10:4
39,13:4
39,14:4
39,15:1
39,16:1
39,17:1
39,18:1
39,19:1
39,20:1
39,21:1
39,22:4
39,23:4
39,24:4
39,25:2
39,26:6
39,28:5
39,30:4
39,33:4
39,34:4
39,35:3
39,36:1
39,37:3
39,54:6
39,55:3
39,56:3
39,57:3
39,59:6
39,61:3
39,62:1
39,63:3
39,64:1
39,65:1
39,66:6
39,67:3
40,43:1
40,45:1
40,46:1
40,47:1
40,49:1
41,1:3
41,2:3
41,3:3
41,4:3
41,7:3
41,8:2
41,9:5
41,10:5
41,13:5
41,14:5
41,15:2
41,16:2
41,17:2
41,18:2
41,19:2
41,20:2
41,21:2
41,22:5
41,23:5
41,24:5
41,25:3
41,26:7
41,27:1
41,28:6
41,29:1
41,30:5
41,31:1
41,32:1
41,33:5
41,34:5
41,35:4
41,36:2
41,37:4
41,38:1
41,39:1
41,40:7
41,43:8
41,44:7
41,45:8
41,46:8
41,47:8
41,48:1
41,49:8
41,50:7
41,51:7
41,54:7
41,55:4
41,56:4
41,57:4
41,58:1
41,59:7
41,61:4
41,62:2
41,63:4
41,64:2
41,65:2
41,66:7
41,67:4
42,1:3
42,2:3
42,3:3
42,4:3
42,7:3
42,8:2
42,9:5
42,10:5
42,13:5
42,14:5
42,15:2
42,16:2
42,17:2
42,18:2
42,19:2
42,20:2
42,21:2
42,22:5
42,23:5
42,24:5
42,25:3
42,26:7
42,27:1
42,28:6
42,29:1
42,30:5
42,31:1
42,32:1
42,33:5
42,34:5
42,35:4
42,36:2
42,37:4
42,38:1
42,39:1
42,40:7
42,43:8
42,44:7
42,45:8
42,46:8
42,47:8
42,48:1
42,49:8
42,50:7
42,51:7
42,54:7
42,55:4
42,56:4
42,57:4
42,58:1
42,59:7
42,61:4
42,62:2
42,63:4
42,64:2
42,65:2
42,66:7
42,67:4
44,43:1
44,45:1
44,46:1
44,47:1
44,49:1
48,1:2
48,2:2
48,3:2
48,4:2
48,7:2
48,8:1
48,9:4
48,10:4
48,13:4
48,14:4
48,15:1
48,16:1
48,17:1
48,18:1
48,19:1
48,20:1
48,21:1
48,22:4
48,23:4
48,24:4
48,25:2
48,26:6
48,28:5
48,30:4
48,33:4
48,34:4
48,35:3
48,36:1
48,37:3
48,40:6
48,43:7
48,44:6
48,45:7
48,46:7
48,47:7
48,49:7
48,50:6
48,51:6
48,54:6
48,55:3
48,56:3
48,57:3
48,59:6
48,61:3
48,62:1
48,63:3
48,64:1
48,65:1
48,66:6
48,67:3
48,68:3
48,69:3
48,71:3
48,72:3
48,73:1
48,74:1
48,80:1
48,84:5
48,86:5
50,43:1
50,45:1
50,46:1
50,47:1
50,49:1
51,43:1
51,45:1
51,46:1
51,47:1
51,49:1
52,1:3
52,2:3
52,3:3
52,4:3
52,7:3
52,8:2
52,9:5
52,10:5
52,13:5
52,14:5
52,15:2
52,16:2
52,17:2
52,18:2
52,19:2
52,20:2
52,21:2
52,22:5
52,23:5
52,24:5
52,25:3
52,26:7
52,27:1
52,28:6
52,29:1
52,30:5
52,31:1
52,32:1
52,33:5
52,34:5
52,35:4
52,36:2
52,37:4
52,38:1
52,39:1
52,40:7
52,43:8
52,44:7
52,45:8
52,46:8
52,47:8
52,48:1
52,49:8
52,50:7
52,51:7
52,54:7
52,55:4
52,56:4
52,57:4
52,58:1
52,59:7
52,61:4
52,62:2
52,63:4
52,64:2
52,65:2
52,66:7
52,67:4
53,1:3
53,2:3
53,3:3
53,4:3
53,7:3
53,8:2
53,9:5
53,10:5
53,13:5
53,14:5
53,15:2
53,16:2
53,17:2
53,18:2
53,19:2
53,20:2
53,21:2
53,22:5
53,23:5
53,24:5
53,25:3
53,26:7
53,27:1
53,28:6
53,29:1
53,30:5
53,31:1
53,32:1
53,33:5
53,34:5
53,35:4
53,36:2
53,37:4
53,38:1
53,39:1
53,40:7
53,43:8
53,44:7
53,45:8
53,46:8
53,47:8
53,48:1
53,49:8
53,50:7
53,51:7
53,54:7
53,55:4
53,56:4
53,57:4
53,58:1
53,59:7
53,61:4
53,62:2
53,63:4
53,64:2
53,65:2
53,66:7
53,67:4
54,43:1
54,45:1
54,46:1
54,47:1
54,49:1
55,9:1
55,10:1
55,13:1
55,14:1
55,22:1
55,23:1
55,24:1
55,26:3
55,28:2
55,30:1
55,33:1
55,34:1
55,40:3
55,43:4
55,44:3
55,45:4
55,46:4
55,47:4
55,49:4
55,50:3
55,51:3
55,54:3
56,9:1
56,10:1
56,13:1
56,14:1
56,22:1
56,23:1
56,24:1
56,26:3
56,28:2
56,30:1
56,33:1
56,34:1
56,40:3
56,43:4
56,44:3
56,45:4
56,46:4
56,47:4
56,49:4
56,50:3
56,51:3
56,54:3
57,9:1
57,10:1
57,13:1
57,14:1
57,22:1
57,23:1
57,24:1
57,26:3
57,28:2
57,30:1
57,33:1
57,34:1
57,40:3
57,43:4
57,44:3
57,45:4
57,46:4
57,47:4
57,49:4
57,50:3
57,51:3
57,54:3
58,1:2
58,2:2
58,3:2
58,4:2
58,7:2
58,8:1
58,9:4
58,10:4
58,13:4
58,14:4
58,15:1
58,16:1
58,17:1
58,18:1
58,19:1
58,20:1
58,21:1
58,22:4
58,23:4
58,24:4
58,25:2
58,26:6
58,28:5
58,30:4
58,33:4
58,34:4
58,35:3
58,36:1
58,37:3
58,40:6
58,43:7
58,44:6
58,45:7
58,46:7
58,47:7
58,49:7
58,50:6
58,51:6
58,54:6
58,55:3
58,56:3
58,57:3
58,59:6
58,61:3
58,62:1
58,63:3
58,64:1
58,65:1
58,66:6
58,68:3
58,69:3
58,71:3
58,72:3
58,80:1
59,43:1
59,45:1
59,46:1
59,47:1
59,49:1
60,1:3
60,2:3
60,3:3
60,4:3
60,7:3
60,8:2
60,9:5
60,10:5
60,13:5
60,14:5
60,15:2
60,16:2
60,17:2
60,18:2
60,19:2
60,20:2
60,21:2
60,22:5
60,23:5
60,24:5
60,25:3
60,26:7
60,27:1
60,28:6
60,29:1
60,30:5
60,31:1
60,32:1
60,33:5
60,34:5
60,35:4
60,36:2
60,37:4
60,38:1
60,39:1
60,40:7
60,43:8
60,44:7
60,45:8
60,46:8
60,47:8
60,48:1
60,49:8
60,50:7
60,51:7
60,54:7
60,55:4
60,56:4
60,57:4
60,58:1
60,59:7
60,61:4
60,62:2
60,63:4
60,64:2
60,65:2
60,66:7
60,68:4
60,69:4
60,71:4
60,72:4
60,80:2
61,9:1
61,10:1
61,13:1
61,14:1
61,22:1
61,23:1
61,24:1
61,26:3
61,28:2
61,30:1
61,33:1
61,34:1
61,40:3
61,43:4
61,44:3
61,45:4
61,46:4
61,47:4
61,49:4
61,50:3
61,51:3
61,54:3
61,59:3
61,66:3
62,1:1
62,2:1
62,3:1
62,4:1
62,7:1
62,9:3
62,10:3
62,13:3
62,14:3
62,22:3
62,23:3
62,24:3
62,25:1
62,26:5
62,28:4
62,30:3
62,33:3
62,34:3
62,35:2
62,37:2
62,40:5
62,43:6
62,44:5
62,45:6
62,46:6
62,47:6
62,49:6
62,50:5
62,51:5
62,54:5
62,55:2
62,56:2
62,57:2
62,59:5
62,61:2
62,63:2
62,66:5
62,68:2
62,69:2
62,71:2
62,72:2
63,9:1
63,10:1
63,13:1
63,14:1
63,22:1
63,23:1
63,24:1
63,26:3
63,28:2
63,30:1
63,33:1
63,34:1
63,40:3
63,43:4
63,44:3
63,45:4
63,46:4
63,47:4
63,49:4
63,50:3
63,51:3
63,54:3
63,59:3
63,66:3
64,1:1
64,2:1
64,3:1
64,4:1
64,7:1
64,9:3
64,10:3
64,13:3
64,14:3
64,22:3
64,23:3
64,24:3
64,25:1
64,26:5
64,28:4
64,30:3
64,33:3
64,34:3
64,35:2
64,37:2
64,40:5
64,43:6
64,44:5
64,45:6
64,46:6
64,47:6
64,49:6
64,50:5
64,51:5
64,54:5
64,55:2
64,56:2
64,57:2
64,59:5
64,61:2
64,63:2
64,66:5
64,68:2
64,69:2
64,71:2
64,72:2
65,1:1
65,2:1
65,3:1
65,4:1
65,7:1
65,9:3
65,10:3
65,13:3
65,14:3
65,22:3
65,23:3
65,24:3
65,25:1
65,26:5
65,28:4
65,30:3
65,33:3
65,34:3
65,35:2
65,37:2
65,40:5
65,43:6
65,44:5
65,45:6
65,46:6
65,47:6
65,49:6
65,50:5
65,51:5
65,54:5
65,55:2
65,56:2
65,57:2
65,59:5
65,61:2
65,63:2
65,66:5
65,68:2
65,69:2
65,71:2
65,72:2
66,43:1
66,45:1
66,46:1
66,47:1
66,49:1
67,9:1
67,10:1
67,13:1
67,14:1
67,22:1
67,23:1
67,24:1
67,26:3
67,28:2
67,30:1
67,33:1
67,34:1
67,40:3
67,43:4
67,44:3
67,45:4
67,46:4
67,47:4
67,49:4
67,50:3
67,51:3
67,54:3
67,59:3
67,66:3
68,9:1
68,10:1
68,13:1
68,14:1
68,22:1
68,23:1
68,24:1
68,26:3
68,28:2
68,30:1
68,33:1
68,34:1
68,40:3
68,43:4
68,44:3
68,45:4
68,46:4
68,47:4
68,49:4
68,50:3
68,51:3
68,54:3
68,59:3
68,66:3
69,9:1
69,10:1
69,13:1
69,14:1
69,22:1
69,23:1
69,24:1
69,26:3
69,28:2
69,30:1
69,33:1
69,34:1
69,40:3
69,43:4
69,44:3
69,45:4
69,46:4
69,47:4
69,49:4
69,50:3
69,51:3
69,54:3
69,59:3
69,66:3
70,1:3
70,2:3
70,3:3
70,4:3
70,7:3
70,8:2
70,9:5
70,10:5
70,13:5
70,14:5
70,15:2
70,16:2
70,17:2
70,18:2
70,19:2
70,20:2
70,21:2
70,22:5
70,23:5
70,24:5
70,25:3
70,26:7
70,27:1
70,28:6
70,29:1
70,30:5
70,31:1
70,32:1
70,33:5
70,34:5
70,35:4
70,36:2
70,37:4
70,38:1
70,39:1
70,40:7
70,43:8
70,44:7
70,45:8
70,46:8
70,47:8
70,48:1
70,49:8
70,50:7
70,51:7
70,54:7
70,55:4
70,56:4
70,57:4
70,58:1
70,59:7
70,61:4
70,62:2
70,63:4
70,64:2
70,65:2
70,66:7
70,67:4
70,68:4
70,69:4
70,71:4
70,73:2
70,74:2
70,75:1
70,76:1
70,77:1
71,9:1
71,10:1
71,13:1
71,14:1
71,22:1
71,23:1
71,24:1
71,26:3
71,28:2
71,30:1
71,33:1
71,34:1
71,40:3
71,43:4
71,44:3
71,45:4
71,46:4
71,47:4
71,49:4
71,50:3
71,51:3
71,54:3
71,59:3
71,66:3
72,9:1
72,10:1
72,13:1
72,14:1
72,22:1
72,23:1
72,24:1
72,26:3
72,28:2
72,30:1
72,33:1
72,34:1
72,40:3
72,43:4
72,44:3
72,45:4
72,46:4
72,47:4
72,49:4
72,50:3
72,51:3
72,54:3
72,59:3
72,66:3
73,1:1
73,2:1
73,3:1
73,4:1
73,7:1
73,9:3
73,10:3
73,13:3
73,14:3
73,22:3
73,23:3
73,24:3
73,25:1
73,26:5
73,28:4
73,30:3
73,33:3
73,34:3
73,35:2
73,37:2
73,40:5
73,43:6
73,44:5
73,45:6
73,46:6
73,47:6
73,49:6
73,50:5
73,51:5
73,54:5
73,55:2
73,56:2
73,57:2
73,59:5
73,61:2
73,63:2
73,66:5
73,67:2
73,68:2
73,69:2
73,71:2
73,72:2
74,1:1
74,2:1
74,3:1
74,4:1
74,7:1
74,9:3
74,10:3
74,13:3
74,14:3
74,22:3
74,23:3
74,24:3
74,25:1
74,26:5
74,28:4
74,30:3
74,33:3
74,34:3
74,35:2
74,37:2
74,40:5
74,43:6
74,44:5
74,45:6
74,46:6
74,47:6
74,49:6
74,50:5
74,51:5
74,54:5
74,55:2
74,56:2
74,57:2
74,59:5
74,61:2
74,63:2
74,66:5
74,67:2
74,68:2
74,69:2
74,71:2
74,72:2
75,1:2
75,2:2
75,3:2
75,4:2
75,7:2
75,8:1
75,9:4
75,10:4
75,13:4
75,14:4
75,15:1
75,16:1
75,17:1
75,18:1
75,19:1
75,20:1
75,21:1
75,22:4
75,23:4
75,24:4
75,25:2
75,26:6
75,28:5
75,30:4
75,33:4
75,34:4
75,35:3
75,36:1
75,37:3
75,40:6
75,43:7
75,44:6
75,45:7
75,46:7
75,47:7
75,49:7
75,50:6
75,51:6
75,54:6
75,55:3
75,56:3
75,57:3
75,59:6
75,61:3
75,62:1
75,63:3
75,64:1
75,65:1
75,66:6
75,67:3
75,68:3
75,69:3
75,71:3
75,72:3
75,73:1
75,74:1
75,80:1
76,1:2
76,2:2
76,3:2
76,4:2
76,7:2
76,8:1
76,9:4
76,10:4
76,13:4
76,14:4
76,15:1
76,16:1
76,17:1
76,18:1
76,19:1
76,20:1
76,21:1
76,22:4
76,23:4
76,24:4
76,25:2
76,26:6
76,28:5
76,30:4
76,33:4
76,34:4
76,35:3
76,36:1
76,37:3
76,40:6
76,43:7
76,44:6
76,45:7
76,46:7
76,47:7
76,49:7
76,50:6
76,51:6
76,54:6
76,55:3
76,56:3
76,57:3
76,59:6
76,61:3
76,62:1
76,63:3
76,64:1
76,65:1
76,66:6
76,67:3
76,68:3
76,69:3
76,71:3
76,72:3
76,73:1
76,74:1
76,80:1
77,1:2
77,2:2
77,3:2
77,4:2
77,7:2
77,8:1
77,9:4
77,10:4
77,13:4
77,14:4
77,15:1
77,16:1
77,17:1
77,18:1
77,19:1
77,20:1
77,21:1
77,22:4
77,23:4
77,24:4
77,25:2
77,26:6
77,28:5
77,30:4
77,33:4
77,34:4
77,35:3
77,36:1
77,37:3
77,40:6
77,43:7
77,44:6
77,45:7
77,46:7
77,47:7
77,49:7
77,50:6
77,51:6
77,54:6
77,55:3
77,56:3
77,57:3
77,59:6
77,61:3
77,62:1
77,63:3
77,64:1
77,65:1
77,66:6
77,67:3
77,68:3
77,69:3
77,71:3
77,72:3
77,73:1
77,74:1
77,80:1
78,1:2
78,2:2
78,3:2
78,4:2
78,7:2
78,8:1
78,9:4
78,10:4
78,13:4
78,14:4
78,15:1
78,16:1
78,17:1
78,18:1
78,19:1
78,20:1
78,21:1
78,22:4
78,23:4
78,24:4
78,25:2
78,26:6
78,28:5
78,30:4
78,33:4
78,34:4
78,35:3
78,36:1
78,37:3
78,40:6
78,43:7
78,44:6
78,45:7
78,46:7
78,47:7
78,49:7
78,50:6
78,51:6
78,54:6
78,55:3
78,56:3
78,57:3
78,59:6
78,61:3
78,62:1
78,63:3
78,64:1
78,65:1
78,66:6
78,67:3
78,68:3
78,69:3
78,71:3
78,72:3
78,73:1
78,74:1
78,80:1
79,1:2
79,2:2
79,3:2
79,4:2
79,7:2
79,8:1
79,9:4
79,10:4
79,13:4
79,14:4
79,15:1
79,16:1
79,17:1
79,18:1
79,19:1
79,20:1
79,21:1
79,22:4
79,23:4
79,24:4
79,25:2
79,26:6
79,28:5
79,30:4
79,33:4
79,34:4
79,35:3
79,36:1
79,37:3
79,40:6
79,43:7
79,44:6
79,45:7
79,46:7
79,47:7
79,49:7
79,50:6
79,51:6
79,54:6
79,55:3
79,56:3
79,57:3
79,59:6
79,61:3
79,62:1
79,63:3
79,64:1
79,65:1
79,66:6
79,67:3
79,68:3
79,69:3
79,71:3
79,72:3
79,73:1
79,74:1
79,80:1
80,1:1
80,2:1
80,3:1
80,4:1
80,7:1
80,9:3
80,10:3
80,13:3
80,14:3
80,22:3
80,23:3
80,24:3
80,25:1
80,26:5
80,28:4
80,30:3
80,33:3
80,34:3
80,35:2
80,37:2
80,40:5
80,43:6
80,44:5
80,45:6
80,46:6
80,47:6
80,49:6
80,50:5
80,51:5
80,54:5
80,55:2
80,56:2
80,57:2
80,59:5
80,61:2
80,63:2
80,66:5
80,67:2
80,68:2
80,69:2
80,71:2
80,72:2
81,1:2
81,2:2
81,3:2
81,4:2
81,7:2
81,8:1
81,9:4
81,10:4
81,13:4
81,14:4
81,15:1
81,16:1
81,17:1
81,18:1
81,19:1
81,20:1
81,21:1
81,22:4
81,23:4
81,24:4
81,25:2
81,26:6
81,28:5
81,30:4
81,33:4
81,34:4
81,35:3
81,36:1
81,37:3
81,40:6
81,43:7
81,44:6
81,45:7
81,46:7
81,47:7
81,49:7
81,50:6
81,51:6
81,54:6
81,55:3
81,56:3
81,57:3
81,59:6
81,61:3
81,62:1
81,63:3
81,64:1
81,65:1
81,66:6
81,67:3
81,68:3
81,69:3
81,71:3
81,72:3
81,73:1
81,74:1
81,80:1
82,1:2
82,2:2
82,3:2
82,4:2
82,7:2
82,8:1
82,9:4
82,10:4
82,13:4
82,14:4
82,15:1
82,16:1
82,17:1
82,18:1
82,19:1
82,20:1
82,21:1
82,22:4
82,23:4
82,24:4
82,25:2
82,26:6
82,28:5
82,30:4
82,33:4
82,34:4
82,35:3
82,36:1
82,37:3
82,40:6
82,43:7
82,44:6
82,45:7
82,46:7
82,47:7
82,49:7
82,50:6
82,51:6
82,54:6
82,55:3
82,56:3
82,57:3
82,59:6
82,61:3
82,62:1
82,63:3
82,64:1
82,65:1
82,66:6
82,67:3
82,68:3
82,69:3
82,71:3
82,72:3
82,73:1
82,74:1
82,80:1
82,84:5
83,1:2
83,2:2
83,3:2
83,4:2
83,7:2
83,8:1
83,9:4
83,10:4
83,13:4
83,14:4
83,15:1
83,16:1
83,17:1
83,18:1
83,19:1
83,20:1
83,21:1
83,22:4
83,23:4
83,24:4
83,25:2
83,26:6
83,28:5
83,30:4
83,33:4
83,34:4
83,35:3
83,36:1
83,37:3
83,40:6
83,43:7
83,44:6
83,45:7
83,46:7
83,47:7
83,49:7
83,50:6
83,51:6
83,54:6
83,55:3
83,56:3
83,57:3
83,59:6
83,61:3
83,62:1
83,63:3
83,64:1
83,65:1
83,66:6
83,67:3
83,68:3
83,69:3
83,71:3
83,72:3
83,73:1
83,74:1
83,80:1
83,84:5
84,26:1
84,40:1
84,43:2
84,44:1
84,45:2
84,46:2
84,47:2
84,49:2
84,50:1
84,51:1
84,54:1
84,59:1
84,66:1
85,1:2
85,2:2
85,3:2
85,4:2
85,7:2
85,8:1
85,9:4
85,10:4
85,13:4
85,14:4
85,15:1
85,16:1
85,17:1
85,18:1
85,19:1
85,20:1
85,21:1
85,22:4
85,23:4
85,24:4
85,25:2
85,26:6
85,28:5
85,30:4
85,33:4
85,34:4
85,35:3
85,36:1
85,37:3
85,40:6
85,43:7
85,44:6
85,45:7
85,46:7
85,47:7
85,49:7
85,50:6
85,51:6
85,54:6
85,55:3
85,56:3
85,57:3
85,59:6
85,61:3
85,62:1
85,63:3
85,64:1
85,65:1
85,66:6
85,67:3
85,68:3
85,69:3
85,71:3
85,72:3
85,73:1
85,74:1
85,80:1
85,84:5
86,26:1
86,40:1
86,43:2
86,44:1
86,45:2
86,46:2
86,47:2
86,49:2
86,50:1
86,51:1
86,54:1
86,59:1
86,66:1
87,1:2
87,2:2
87,3:2
87,4:2
87,7:2
87,8:1
87,9:4
87,10:4
87,13:4
87,14:4
87,15:1
87,16:1
87,17:1
87,18:1
87,19:1
87,20:1
87,21:1
87,22:4
87,23:4
87,24:4
87,25:2
87,26:6
87,28:5
87,30:4
87,33:4
87,34:4
87,35:3
87,36:1
87,37:3
87,40:6
87,43:7
87,44:6
87,45:7
87,46:7
87,47:7
87,49:7
87,50:6
87,51:6
87,54:6
87,55:3
87,56:3
87,57:3
87,59:6
87,61:3
87,62:1
87,63:3
87,64:1
87,65:1
87,66:6
87,67:3
87,68:3
87,69:3
87,71:3
87,72:3
87,73:1
87,74:1
87,80:1
87,84:5
87,86:5
88,1:2
88,2:2
88,3:2
88,4:2
88,7:2
88,8:1
88,9:4
88,10:4
88,13:4
88,14:4
88,15:1
88,16:1
88,17:1
88,18:1
88,19:1
88,20:1
88,21:1
88,22:4
88,23:4
88,24:4
88,25:2
88,26:6
88,28:5
88,30:4
88,33:4
88,34:4
88,35:3
88,36:1
88,37:3
88,40:6
88,43:7
88,44:6
88,45:7
88,46:7
88,47:7
88,49:7
88,50:6
88,51:6
88,54:6
88,55:3
88,56:3
88,57:3
88,59:6
88,61:3
88,62:1
88,63:3
88,64:1
88,65:1
88,66:6
88,67:3
88,68:3
88,69:3
88,71:3
88,72:3
88,73:1
88,74:1
88,80:1
88,84:5
88,86:5
89,1:2
89,2:2
89,3:2
89,4:2
89,7:2
89,8:1
89,9:4
89,10:4
89,13:4
89,14:4
89,15:1
89,16:1
89,17:1
89,18:1
89,19:1
89,20:1
89,21:1
89,22:4
89,23:4
89,24:4
89,25:2
89,26:6
89,28:5
89,30:4
89,33:4
89,34:4
89,35:3
89,36:1
89,37:3
89,40:6
89,43:7
89,44:6
89,45:7
89,46:7
89,47:7
89,49:7
89,50:6
89,51:6
89,54:6
89,55:3
89,56:3
89,57:3
89,59:6
89,61:3
89,62:1
89,63:3
89,64:1
89,65:1
89,66:6
89,67:3
89,68:3
89,69:3
89,71:3
89,72:3
89,73:1
89,74:1
89,80:1
89,84:5
89,86:5

<end>

<optimal SALBP-1 value>
23


<rand seed>
467321153

